  50 

  39  22  27  18  21  44  28  16   8   1  30  29  18  26  14   6   6  21   2   7  18  36  15  27   6  43  39   1  12  10   2  23  39  20  27  50  33  32  13   6  30  47  42  39  30  17   2  39  24  25

 206

  25  20   1  15  20  19  24  21   9  11  24  25   5   8   6  13  20   6  15   8  22   9   3  24  22  15  14   6   7  15  17   8   9  12   7  13   5  19   8  23  24   9   6  18   3  24   6   2  15   1

